1 1304 2312
2 3639 1315
3 4177 2244
4 3712 1399
5 3488 1535
6 3326 1556
7 3238 1229
8 4196 1004
9 4312 790
10 4386 570
11 3007 1970
12 2562 1756
13 2788 1491
14 2381 1676
15 1332 695
16 3715 1678
17 3918 2179
18 4061 2370
19 3780 2212
20 3676 2578

